-6890.91       2242.06    
-5632.62       2838.55    
-5096.27       2947.10    
-7369.09       2424.18    
-4303.32       5701.62    
-5216.07       2805.86    
-7036.07       2433.68    
-10357.5       4229.90    
-5785.13       2920.73    
-5704.14       2459.86
-5830.85       2331.90    
-5142.33       2719.89    